experiments/benchmarks/random_smt/6_5_6.smt2
(declare-fun X0 () (_ BitVec 12))
(declare-fun X1 () (_ BitVec 12))
(declare-fun X2 () (_ BitVec 12))
(declare-fun X3 () (_ BitVec 12))
(declare-fun X4 () (_ BitVec 12))
(declare-fun X5 () (_ BitVec 12))
(assert (bvsge (bvadd (bvmul #b111111111000 X0) (bvmul #b000000001000 X1) (bvmul #b111111111010 X2) (bvmul #b111111111011 X3) (bvmul #b000000000100 X4) (bvmul #b000000000101 X5)  #b111111111010) #b000000000000))
(assert (bvsge (bvadd (bvmul #b000000000110 X0) (bvmul #b000000000001 X1) (bvmul #b000000000100 X2) (bvmul #b111111111011 X4) (bvmul #b111111111010 X5)  #b000000000000) #b000000000000))
(assert (bvsge (bvadd (bvmul #b111111110111 X5)  #b111111111010) #b000000000000))
(assert (bvsge (bvadd (bvmul #b111111111110 X2) (bvmul #b000000000111 X3) (bvmul #b111111111111 X4)  #b111111111110) #b000000000000))
(assert (bvsge (bvadd (bvmul #b111111111101 X1) (bvmul #b111111111100 X5)  #b000000000110) #b000000000000))
(assert (bvsge (bvadd (bvmul #b000000000001 X0)  #b000000001000) #b000000000000))
(assert (bvsge (bvadd (bvmul #b000000000001 X1)  #b000000001000) #b000000000000))
(assert (bvsge (bvadd (bvmul #b000000000001 X2)  #b000000001000) #b000000000000))
(assert (bvsge (bvadd (bvmul #b000000000001 X3)  #b000000001000) #b000000000000))
(assert (bvsge (bvadd (bvmul #b000000000001 X4)  #b000000001000) #b000000000000))
(assert (bvsge (bvadd (bvmul #b000000000001 X5)  #b000000001000) #b000000000000))
(assert (bvsge (bvadd (bvmul #b111111111111 X0)  #b000000000111) #b000000000000))
(assert (bvsge (bvadd (bvmul #b111111111111 X1)  #b000000000111) #b000000000000))
(assert (bvsge (bvadd (bvmul #b111111111111 X2)  #b000000000111) #b000000000000))
(assert (bvsge (bvadd (bvmul #b111111111111 X3)  #b000000000111) #b000000000000))
(assert (bvsge (bvadd (bvmul #b111111111111 X4)  #b000000000111) #b000000000000))
(assert (bvsge (bvadd (bvmul #b111111111111 X5)  #b000000000111) #b000000000000))
(check-sat)
