experiments/benchmarks/random/6_5_6.in
17 8
1 -8 8 -6 -5 4 5 -6
1 6 1 4 0 -5 -6 0
1 0 0 0 0 0 -9 -6
1 0 0 -2 7 -1 0 -2
1 0 -3 0 0 0 -4 6
1 1 0 0 0 0 0 8
1 0 1 0 0 0 0 8
1 0 0 1 0 0 0 8
1 0 0 0 1 0 0 8
1 0 0 0 0 1 0 8
1 0 0 0 0 0 1 8
1 -1 0 0 0 0 0 7
1 0 -1 0 0 0 0 7
1 0 0 -1 0 0 0 7
1 0 0 0 -1 0 0 7
1 0 0 0 0 -1 0 7
1 0 0 0 0 0 -1 7
